50

100 46 303
100 22 418
99 40 316
96 46 435
95 4 326
94 23 297
92 22 374
92 4 409
90 37 367
89 19 367
89 24 271
84 6 288
82 11 420
80 26 401
80 16 270
79 8 311
74 11 391
74 20 319
72 9 405
71 14 372
69 17 262
67 3 361
67 4 339
64 5 416
62 25 438
60 8 313
60 28 332
59 11 331
58 11 288
55 25 440
51 24 413
48 9 384
47 11 354
46 13 448
45 15 187
43 5 435
42 13 140
41 20 202
41 11 426
40 13 264
38 9 158
34 7 445
33 14 235
32 6 431
27 13 387
26 4 170
24 10 288
24 3 141
23 7 232
20 2 385
